(set-info :smt-lib-version 2.6)
(set-logic QF_S)
(set-info :source |
Generated by: Murphy Berzish, Mitja Kulczynski, Federico Mora, Florin Manea, Joel Day, Dirk Nowotka, Vijay Ganesh, Zhengyang Lu
Generated on: 2020-10-01
Description: Translated from a collection of real-world regex queries, AutomataArk, collected by Loris D’Antoni and Fang Wang: https://github.com/lorisdanto/automatark
Application: Evaluate solvers on real-world regex queries
Target solver: Z3str3RE, CVC4, OSTRICH, Z3seq, Z3str3, Z3-Trau
Publications: Berzish, M., Kulczynski, M., Mora, F., Manea, F., Day, J. D., Nowotka, D., & Ganesh, V. (2021, July). An SMT solver for regular expressions and linear arithmetic over string length. In CAV 2021.
|)
(set-info :license "https://creativecommons.org/licenses/by/4.0/")
(set-info :category "industrial")
(set-info :status unsat)

(declare-const X String)
(assert (not (str.in_re X (str.to_re "Host:fromZC-Bridgev.xml/NFO,Registered\u{a}"))))
(assert (str.in_re X (re.++ (str.to_re "*PORT3*") (re.+ (re.union (str.to_re " ") (str.to_re "\u{9}") (str.to_re "\u{a}") (str.to_re "\u{c}") (str.to_re "\u{d}"))) (str.to_re "Warez") (re.* re.allchar) (str.to_re "X-Mailer:\u{13}Subject:KEY=\u{a}"))))
(assert (not (str.in_re X (re.union (re.++ (str.to_re "352") (re.range "8" "9") (re.union ((_ re.loop 11 11) (re.range "0" "9")) ((_ re.loop 12 12) (re.range "0" "9")))) (re.++ (str.to_re "\u{a}35") (re.range "3" "8") (re.union ((_ re.loop 12 12) (re.range "0" "9")) ((_ re.loop 13 13) (re.range "0" "9"))))))))
(assert (str.in_re X (re.++ (re.union (re.++ (re.range "0" "1") (re.range "0" "9")) (re.++ (str.to_re "2") (re.range "0" "4"))) (str.to_re ":") (re.union (re.++ (str.to_re "0") (re.range "0" "9")) (re.++ (re.range "1" "5") (re.range "0" "9"))) (str.to_re ":") (re.union (re.++ (str.to_re "0") (re.range "0" "9")) (re.++ (re.range "1" "5") (re.range "0" "9"))) (re.opt (re.++ (str.to_re ".") (re.union (re.range "0" "9") (str.to_re "9")))) (re.opt (re.union (re.++ (re.union (str.to_re "+") (str.to_re "-")) (re.union (re.++ (re.range "0" "1") (re.range "0" "9")) (re.++ (str.to_re "2") (re.range "0" "4"))) (str.to_re ":") (re.union (re.++ (str.to_re "0") (re.range "0" "9")) (re.++ (re.range "1" "5") (re.range "0" "9")))) (str.to_re "Z"))) (str.to_re "\u{a}"))))
(assert (not (str.in_re X (re.++ (str.to_re "for") (re.* re.allchar) (re.union (re.range "A" "Z") (re.range "a" "z")) (re.union (str.to_re "<") (str.to_re ">") (str.to_re " ")) (re.range "0" "9") (str.to_re "\u{a}")))))
(check-sat)

(exit)
